
<<< setup


<<< generate

CPXPARAM_TimeLimit                               3600
Found incumbent of value 0,000000 after 1,36 sec. (1098,17 ticks)
Presolve has eliminated 5255743 rows and 6298794 columns...
Presolve has improved bounds 400 times...
Aggregator has done 1 substitutions...
Aggregator has done 3 substitutions...
Aggregator has done 4 substitutions...
Aggregator has done 6 substitutions...
Aggregator has done 7 substitutions...
Aggregator has done 9 substitutions...
Aggregator has done 10 substitutions...
Aggregator has done 12 substitutions...
Aggregator has done 13 substitutions...
Aggregator has done 15 substitutions...
Aggregator has done 16 substitutions...
Aggregator has done 18 substitutions...
Aggregator has done 19 substitutions...
Aggregator has done 21 substitutions...
Aggregator has done 22 substitutions...
Aggregator has done 24 substitutions...
Aggregator has done 25 substitutions...
Aggregator has done 27 substitutions...
Aggregator has done 28 substitutions...
Aggregator has done 30 substitutions...
Aggregator has done 31 substitutions...
Aggregator has done 33 substitutions...
Aggregator has done 34 substitutions...
Aggregator has done 36 substitutions...
Aggregator has done 37 substitutions...
Aggregator has done 39 substitutions...
Aggregator has done 40 substitutions...
Aggregator has done 42 substitutions...
Aggregator has done 43 substitutions...
Aggregator has done 45 substitutions...
Aggregator has done 46 substitutions...
Aggregator has done 48 substitutions...
Aggregator has done 49 substitutions...
Aggregator has done 51 substitutions...
Aggregator has done 52 substitutions...
Aggregator has done 54 substitutions...
Aggregator has done 55 substitutions...
Aggregator has done 57 substitutions...
Aggregator has done 58 substitutions...
Aggregator has done 60 substitutions...
Aggregator has done 61 substitutions...
Aggregator has done 63 substitutions...
Aggregator has done 64 substitutions...
Aggregator has done 66 substitutions...
Tried aggregator 68 times.
MIP Presolve eliminated 5255843 rows and 6304289 columns.
Aggregator did 67 substitutions.
Reduced MIP has 76721 rows, 6649744 columns, and 19719471 nonzeros.
Reduced MIP has 6649743 binaries, 1 generals, 0 SOSs, and 0 indicators.
Presolve time = 588,88 sec. (483359,13 ticks)
Presolve has eliminated 0 rows and 0 columns...
Tried aggregator 1 time.
Reduced MIP has 76721 rows, 6649744 columns, and 19719471 nonzeros.
Reduced MIP has 6649743 binaries, 1 generals, 0 SOSs, and 0 indicators.
Presolve time = 38,25 sec. (23224,39 ticks)
Probing time = 14,09 sec. (800,09 ticks)
Clique table members: 289.
MIP emphasis: balance optimality and feasibility.
MIP search method: dynamic search.
Parallel mode: deterministic, using up to 8 threads.
Root relaxation solution time = 2723,41 sec. (1280826,82 ticks)

        Nodes                                         Cuts/
   Node  Left     Objective  IInf  Best Integer    Best Bound    ItCnt     Gap

*     0+    0                          711,1942   7,14536e+07              --- 
      0     0   1,00000e+37     0      711,1942   7,14536e+07   100373     --- 

Root node processing (before b&c):
  Real time             = 3605,20 sec. (1799928,94 ticks)
Parallel b&c, 8 threads:
  Real time             =    0,00 sec. (0,00 ticks)
  Sync time (average)   =    0,00 sec.
  Wait time (average)   =    0,00 sec.
                          ------------
Total (root+branch&cut) = 3605,20 sec. (1799928,94 ticks)

<<< solve


OBJECTIVE: 711.1942
RESULTS,711.194175245,3712.561,100468.939011512
SEQUENCE,0->1->2->3->4->5->6->7->8->9->10->11->12->13->14->15->16->17->18->19->20->21->22->23->24->25->26->27->28->29->30->31->32->33->34->35->36->37->38->39->40->41->42->44->45->46->47->48->49->50->53->57->58->59->61->66->67->68->69->70->72->75->79->81->82->97->0

<<< post process


<<< done

